treewidth/data/HarborthGraph.gr
p tw 52 104
1 2
1 13
1 46
1 49
2 24
2 46
2 52
13 35
13 49
13 3
24 50
24 52
24 4
35 51
35 3
35 5
46 52
46 6
49 3
49 6
50 4
50 7
50 11
51 5
51 8
51 12
52 4
3 5
4 9
5 10
6 9
6 10
7 11
7 14
7 16
8 12
8 15
8 17
9 14
9 19
10 15
10 20
11 16
11 18
12 17
12 21
14 16
14 19
15 17
15 20
16 18
17 21
18 22
18 27
19 25
19 29
20 26
20 30
21 23
21 28
22 25
22 27
22 31
23 26
23 28
23 32
25 29
25 31
26 30
26 32
27 31
27 39
28 32
28 40
29 33
29 34
30 33
30 36
31 39
32 40
33 41
33 42
34 37
34 39
34 43
36 38
36 40
36 44
37 41
37 43
37 45
38 42
38 44
38 47
39 43
40 44
41 45
41 48
42 47
42 48
43 45
44 47
45 48
47 48
