treewidth/data/HarborthGraph.td
c width = 5, time = 0.129030
s td 31 6 52
b 1 1 6 33 48
b 2 1 6 18 19 33 48
b 3 1 6 9 18 19 50
b 4 1 6 9 24 50 52
b 5 1 2 6 24 46 52
b 6 4 9 24 50 52
b 7 7 9 16 18 19 50
b 8 7 11 16 18 50
b 9 7 9 14 16 19
b 10 18 19 33 34 39 48
b 11 18 19 25 33 34 39
b 12 18 22 25 27 31 39
b 13 19 25 29 33 34
b 14 33 34 37 39 45 48
b 15 33 37 41 45 48
b 16 34 37 39 43 45
b 17 1 6 20 21 33 48
b 18 1 6 10 20 21 51
b 19 1 6 10 13 49 51
b 20 5 10 13 35 49 51
b 21 3 5 13 35 49
b 22 8 10 17 20 21 51
b 23 8 12 17 21 51
b 24 8 10 15 17 20
b 25 20 21 33 36 40 48
b 26 20 21 26 33 36 40
b 27 21 23 26 28 32 40
b 28 20 26 30 33 36
b 29 33 36 38 40 47 48
b 30 33 38 42 47 48
b 31 36 38 40 44 47
4 5
4 6
3 4
7 8
7 9
3 7
2 3
11 12
11 13
10 11
14 15
14 16
10 14
2 10
1 2
20 21
19 20
18 19
22 23
22 24
18 22
17 18
26 27
26 28
25 26
29 30
29 31
25 29
17 25
1 17
